* ENCODING=ISO-8859-1
NAME          CPLEX
ROWS
 N  obj1    
 G  c1      
 G  c2      
 G  c3      
 G  c4      
 G  c5      
 G  c6      
 G  c7      
 G  c8      
 G  c9      
 G  c10     
 G  c11     
 G  c12     
 G  c13     
 G  c14     
 G  c15     
 G  c16     
 G  c17     
 G  c18     
 G  c19     
 G  c20     
 G  c21     
 G  c22     
 G  c23     
 G  c24     
 G  c25     
 G  c26     
 G  c27     
 G  c28     
 G  c29     
 G  c30     
 G  c31     
 G  c32     
 G  c33     
 G  c34     
 G  c35     
 G  c36     
 G  c37     
 G  c38     
 G  c39     
 G  c40     
COLUMNS
    MARK0000  'MARKER'                 'INTORG'
    x1        obj1                            1
    x1        c6                            671
    x1        c18                           570
    x1        c19                           619
    x1        c25                           889
    x2        obj1                            1
    x3        obj1                            1
    x3        c9                            850
    x3        c14                           559
    x3        c24                           951
    x4        obj1                            1
    x4        c1                            220
    x4        c11                           933
    x4        c15                           957
    x4        c21                           771
    x4        c33                           181
    x4        c40                           139
    x5        obj1                            1
    x5        c11                           119
    x5        c14                           239
    x5        c27                           841
    x5        c33                           501
    x5        c34                           572
    x6        obj1                            1
    x6        c21                           654
    x7        obj1                            1
    x7        c17                           893
    x7        c19                           597
    x7        c32                           232
    x7        c35                           808
    x8        obj1                            1
    x8        c3                            873
    x8        c14                           942
    x8        c20                           594
    x8        c40                           918
    x9        obj1                            1
    x9        c3                            871
    x9        c12                           751
    x9        c13                           196
    x9        c16                           357
    x9        c23                           679
    x9        c36                           634
    x10       obj1                            1
    x10       c9                            470
    x10       c21                           721
    x10       c35                           984
    x10       c36                           793
    x11       obj1                            1
    x11       c8                            439
    x11       c13                           902
    x11       c40                           190
    x12       obj1                            1
    x12       c14                           890
    x12       c17                           869
    x12       c23                           845
    x12       c25                           845
    x13       obj1                            1
    x13       c22                           380
    x13       c24                           399
    x13       c28                           615
    x13       c40                           656
    x14       obj1                            1
    x14       c18                           397
    x14       c23                           479
    x14       c40                           849
    x15       obj1                            1
    x15       c7                            817
    x15       c8                            900
    x15       c15                           983
    x15       c22                           461
    x15       c28                           122
    x15       c35                           170
    x16       obj1                            1
    x16       c24                           197
    x16       c29                           331
    x16       c39                           431
    x17       obj1                            1
    x17       c12                           943
    x17       c19                           230
    x17       c25                           937
    x17       c26                           404
    x17       c40                           778
    x18       obj1                            1
    x18       c40                           435
    x19       obj1                            1
    x19       c34                           213
    x20       obj1                            1
    x20       c15                           747
    x21       obj1                            1
    x21       c9                            677
    x21       c13                           851
    x21       c23                           539
    x21       c30                           560
    x21       c35                           469
    x22       obj1                            1
    x22       c3                            350
    x22       c24                           482
    x22       c28                           516
    x22       c30                           637
    x22       c31                           371
    x23       obj1                            1
    x23       c11                           897
    x23       c14                           624
    x23       c17                           860
    x23       c25                           272
    x23       c36                           180
    x23       c38                           671
    x23       c40                           802
    x24       obj1                            1
    x24       c1                            444
    x24       c28                           626
    x24       c32                           338
    x25       obj1                            1
    x25       c11                           198
    x25       c19                           758
    x26       obj1                            1
    x26       c30                           273
    x27       obj1                            1
    x27       c15                           893
    x27       c32                           512
    x27       c40                           371
    x28       obj1                            1
    x28       c9                            666
    x28       c22                           316
    x28       c27                           847
    x28       c28                           615
    x28       c29                           929
    x29       obj1                            1
    x29       c3                            259
    x29       c7                            340
    x29       c29                           350
    x29       c36                           431
    x30       obj1                            1
    x30       c17                           172
    x30       c26                           981
    x30       c30                           873
    x30       c32                           197
    x30       c37                           304
    x31       obj1                            1
    x31       c5                            571
    x31       c22                           694
    x31       c39                           795
    x32       obj1                            1
    x32       c4                            364
    x32       c38                           610
    x33       obj1                            1
    x33       c3                            763
    x33       c14                           166
    x33       c28                           481
    x33       c39                           851
    x34       obj1                            1
    x34       c14                           947
    x34       c19                           592
    x35       obj1                            1
    x35       c3                            170
    x35       c10                           816
    x35       c13                           987
    x35       c19                           286
    x35       c20                           465
    x36       obj1                            1
    x36       c6                            141
    x36       c17                           987
    x36       c22                           325
    x37       obj1                            1
    x37       c18                           122
    x38       obj1                            1
    x38       c3                            301
    x38       c12                           244
    x38       c15                           182
    x38       c22                           249
    x38       c35                           639
    x39       obj1                            1
    x39       c7                            847
    x39       c10                           854
    x39       c11                           950
    x39       c18                           125
    x39       c28                           897
    x40       obj1                            1
    x40       c6                            663
    x40       c26                           992
    x40       c31                           592
    x40       c33                           677
    x40       c35                           963
    x41       obj1                            1
    x41       c2                            100
    x41       c7                            432
    x41       c32                           691
    x42       obj1                            1
    x42       c9                            461
    x42       c11                           690
    x42       c13                           636
    x42       c19                           203
    x42       c22                           199
    x42       c25                           346
    x43       obj1                            1
    x43       c14                           387
    x43       c18                           820
    x43       c19                           478
    x43       c27                           232
    x43       c39                           794
    x44       obj1                            1
    x44       c6                            409
    x44       c11                           319
    x44       c14                           461
    x45       obj1                            1
    x45       c29                           434
    x46       obj1                            1
    x46       c14                           353
    x46       c20                           452
    x46       c32                           928
    x47       obj1                            1
    x47       c5                            679
    x47       c9                            839
    x47       c13                           900
    x47       c29                           599
    x48       obj1                            1
    x48       c8                            489
    x48       c13                           572
    x48       c23                           604
    x48       c25                           883
    x48       c28                           810
    x48       c32                           343
    x48       c36                           842
    x49       obj1                            1
    x49       c2                            413
    x49       c8                            183
    x49       c10                           957
    x49       c11                           532
    x49       c12                           331
    x49       c22                           408
    x49       c25                           133
    x49       c30                           726
    x50       obj1                            1
    x50       c12                           863
    x50       c14                           498
    x50       c15                           628
    x50       c24                           894
    x50       c35                           462
    x50       c39                           232
    x51       obj1                            1
    x51       c9                            308
    x51       c20                           354
    x51       c21                           362
    x51       c23                           546
    x51       c24                           474
    x51       c28                           532
    x52       obj1                            1
    x52       c15                           587
    x52       c16                           995
    x52       c17                           324
    x52       c23                           775
    x52       c36                           646
    x53       obj1                            1
    x53       c14                           578
    x53       c39                           566
    x54       obj1                            1
    x54       c1                            741
    x54       c2                            983
    x54       c10                           814
    x54       c23                           704
    x54       c30                           656
    x54       c40                           505
    x55       obj1                            1
    x55       c4                            996
    x55       c5                            839
    x55       c11                           388
    x55       c32                           399
    x55       c38                           761
    x56       obj1                            1
    x56       c17                           731
    x56       c26                           916
    x56       c30                           106
    x57       obj1                            1
    x57       c17                           296
    x58       obj1                            1
    x58       c6                            434
    x58       c8                            889
    x58       c13                           492
    x58       c15                           486
    x58       c21                           994
    x58       c34                           239
    x59       obj1                            1
    x59       c5                            256
    x59       c7                            334
    x59       c15                           642
    x59       c26                           562
    x59       c27                           999
    x59       c34                           720
    x60       obj1                            1
    x60       c4                            597
    x60       c13                           145
    x60       c16                           466
    x61       obj1                            1
    x61       c11                           405
    x61       c31                           982
    x61       c35                           810
    x61       c40                           776
    x62       obj1                            1
    x62       c1                            300
    x62       c13                           202
    x62       c22                           919
    x62       c26                           757
    x62       c30                           744
    x63       obj1                            1
    x63       c4                            223
    x63       c5                            265
    x63       c19                           642
    x63       c24                           977
    x63       c27                           623
    x64       obj1                            1
    x65       obj1                            1
    x65       c3                            806
    x65       c8                            982
    x65       c9                            665
    x65       c36                           965
    x65       c39                           701
    x66       obj1                            1
    x66       c2                            695
    x66       c8                            252
    x66       c9                            517
    x66       c27                           660
    x66       c31                           319
    x66       c32                           246
    x66       c34                           475
    x67       obj1                            1
    x67       c8                            265
    x67       c11                           328
    x67       c23                           345
    x67       c25                           379
    x67       c32                           898
    x68       obj1                            1
    x68       c6                            408
    x68       c23                           909
    x68       c24                           399
    x68       c31                           418
    x69       obj1                            1
    x69       c35                           114
    x69       c37                           965
    x70       obj1                            1
    x70       c15                           263
    x70       c24                           461
    x71       obj1                            1
    x71       c8                            948
    x71       c16                           804
    x71       c37                           510
    x71       c40                           349
    x72       obj1                            1
    x72       c8                            975
    x72       c19                           788
    x72       c31                           820
    x73       obj1                            1
    x73       c2                            247
    x73       c4                            273
    x73       c6                            890
    x73       c12                           290
    x73       c13                           394
    x73       c15                           460
    x73       c24                           518
    x73       c37                           976
    x74       obj1                            1
    x74       c28                           742
    x75       obj1                            1
    x75       c7                            817
    x75       c25                           690
    x75       c33                           359
    x75       c34                           144
    x76       obj1                            1
    x76       c6                            922
    x76       c9                            700
    x76       c24                           805
    x76       c38                           978
    x77       obj1                            1
    x77       c29                           289
    x77       c31                           400
    x77       c32                           113
    x78       obj1                            1
    x78       c22                           181
    x78       c29                           526
    x78       c37                           764
    x78       c39                           176
    x79       obj1                            1
    x79       c6                            813
    x79       c22                           565
    x80       obj1                            1
    x80       c2                            446
    x80       c8                            343
    x80       c19                           717
    x80       c23                           206
    x80       c25                           277
    MARK0001  'MARKER'                 'INTEND'
RHS
    rhs       c1                            853
    rhs       c2                           1442
    rhs       c3                           2197
    rhs       c4                           1227
    rhs       c5                           1305
    rhs       c6                           2676
    rhs       c7                           1794
    rhs       c8                           3333
    rhs       c9                           3077
    rhs       c10                          1721
    rhs       c11                          2880
    rhs       c12                          1711
    rhs       c13                          3139
    rhs       c14                          3322
    rhs       c15                          3414
    rhs       c16                          1311
    rhs       c17                          2566
    rhs       c18                          1017
    rhs       c19                          2955
    rhs       c20                           933
    rhs       c21                          1751
    rhs       c22                          2349
    rhs       c23                          3316
    rhs       c24                          3279
    rhs       c25                          2826
    rhs       c26                          2306
    rhs       c27                          2101
    rhs       c28                          2978
    rhs       c29                          1729
    rhs       c30                          2288
    rhs       c31                          1951
    rhs       c32                          2449
    rhs       c33                           859
    rhs       c34                          1182
    rhs       c35                          2710
    rhs       c36                          2246
    rhs       c37                          1760
    rhs       c38                          1510
    rhs       c39                          2273
    rhs       c40                          3384
BOUNDS
 LI bnd       x1        0
 LI bnd       x2        0
 LI bnd       x3        0
 LI bnd       x4        0
 LI bnd       x5        0
 LI bnd       x6        0
 LI bnd       x7        0
 LI bnd       x8        0
 LI bnd       x9        0
 LI bnd       x10       0
 LI bnd       x11       0
 LI bnd       x12       0
 LI bnd       x13       0
 LI bnd       x14       0
 LI bnd       x15       0
 LI bnd       x16       0
 LI bnd       x17       0
 LI bnd       x18       0
 LI bnd       x19       0
 LI bnd       x20       0
 LI bnd       x21       0
 LI bnd       x22       0
 LI bnd       x23       0
 LI bnd       x24       0
 LI bnd       x25       0
 LI bnd       x26       0
 LI bnd       x27       0
 LI bnd       x28       0
 LI bnd       x29       0
 LI bnd       x30       0
 LI bnd       x31       0
 LI bnd       x32       0
 LI bnd       x33       0
 LI bnd       x34       0
 LI bnd       x35       0
 LI bnd       x36       0
 LI bnd       x37       0
 LI bnd       x38       0
 LI bnd       x39       0
 LI bnd       x40       0
 LI bnd       x41       0
 LI bnd       x42       0
 LI bnd       x43       0
 LI bnd       x44       0
 LI bnd       x45       0
 LI bnd       x46       0
 LI bnd       x47       0
 LI bnd       x48       0
 LI bnd       x49       0
 LI bnd       x50       0
 LI bnd       x51       0
 LI bnd       x52       0
 LI bnd       x53       0
 LI bnd       x54       0
 LI bnd       x55       0
 LI bnd       x56       0
 LI bnd       x57       0
 LI bnd       x58       0
 LI bnd       x59       0
 LI bnd       x60       0
 LI bnd       x61       0
 LI bnd       x62       0
 LI bnd       x63       0
 LI bnd       x64       0
 LI bnd       x65       0
 LI bnd       x66       0
 LI bnd       x67       0
 LI bnd       x68       0
 LI bnd       x69       0
 LI bnd       x70       0
 LI bnd       x71       0
 LI bnd       x72       0
 LI bnd       x73       0
 LI bnd       x74       0
 LI bnd       x75       0
 LI bnd       x76       0
 LI bnd       x77       0
 LI bnd       x78       0
 LI bnd       x79       0
 LI bnd       x80       0
ENDATA
